# CSV file produced by Simufact
# Date of creation: 05.10.2021 14:34:50
#
# 1 (TIME - s);1 (Equivalent stress - MPa);# 2 (TIME - s);2 (Equivalent stress - MPa);# 3 (TIME - s);3 (Equivalent stress - MPa);# 4 (TIME - s);4 (Equivalent stress - MPa);# 5 (TIME - s);5 (Equivalent stress - MPa);# 6 (TIME - s);6 (Equivalent stress - MPa);# 7 (TIME - s);7 (Equivalent stress - MPa);# 8 (TIME - s);8 (Equivalent stress - MPa);# 9 (TIME - s);9 (Equivalent stress - MPa)
23973.9028;23.6746439;23973.9028;23.6780641;23973.9028;23.6840633;23973.9028;23.6915506;23973.9028;23.6963996;23973.9028;23.6974979;23973.9028;23.6868023;23973.9028;23.6758539;23973.9028;23.685512
23974.0786;179.542084;23974.0786;179.32708;23974.0786;178.970444;23974.0786;178.082646;23974.0786;177.367761;23974.0786;177.213304;23974.0786;178.639621;23974.0786;179.507104;23974.0786;178.831671
23985.5028;491.9151;23985.5028;489.925235;23985.5028;489.95352;23985.5028;506.422784;23985.5028;520.477419;23985.5028;523.115229;23985.5028;495.863277;23985.5028;489.176155;23985.5028;493.630652
24939.9451;532.059181;24939.9451;528.519831;24939.9451;526.124276;24939.9451;541.185386;24939.9451;554.615924;24939.9451;556.967804;24939.9451;530.820448;24939.9451;528.175682;24939.9451;529.493912
24939.9451;535.727164;24939.9451;531.951168;24939.9451;529.178634;24939.9451;543.790058;24939.9451;556.819195;24939.9451;559.096337;24939.9451;533.681083;24939.9451;531.719828;24939.9451;532.476183
24940.1209;538.043319;24940.1209;534.039392;24940.1209;530.90364;24940.1209;545.091766;24940.1209;557.792042;24940.1209;560.000445;24940.1209;535.209465;24940.1209;533.921935;24940.1209;534.131661
24951.5451;537.508118;24951.5451;533.162282;24951.5451;529.435093;24951.5451;542.795899;24951.5451;554.830883;24951.5451;556.902589;24951.5451;533.393647;24951.5451;533.232463;24951.5451;532.502251
25324.626;516.584017;25324.626;514.142968;25324.626;513.427852;25324.626;529.825521;25324.626;544.027132;25324.626;546.558151;25324.626;518.857717;25324.626;513.313642;25324.626;517.026027
25324.626;518.18774;25324.626;515.631649;25324.626;514.732338;25324.626;530.89386;25324.626;544.872951;25324.626;547.366886;25324.626;520.073678;25324.626;514.860755;25324.626;518.298166
25324.8018;521.446316;25324.8018;518.682393;25324.8018;517.454398;25324.8018;533.272468;25324.8018;546.978555;25324.8018;549.412909;25324.8018;522.623342;25324.8018;518.003388;25324.8018;520.960358
25336.226;533.191446;25336.226;530.30013;25336.226;529.807515;25336.226;547.312421;25336.226;559.059479;25336.226;561.131253;25336.226;535.535613;25336.226;529.335495;25336.226;533.873138
25706.6994;519.180057;25706.6994;517.883145;25706.6994;519.827464;25706.6994;540.144457;25706.6994;553.761209;25706.6994;556.00464;25706.6994;526.923833;25706.6994;516.277733;25706.6994;524.407371
25706.6995;519.606881;25706.6995;518.245425;25706.6995;520.051155;25706.6995;540.359189;25706.6995;553.849493;25706.6995;556.024415;25706.6995;527.196381;25706.6995;516.683204;25706.6995;524.645904
25706.8752;522.056258;25706.8752;520.498727;25706.8752;521.983136;25706.8752;542.036073;25706.8752;555.312314;25706.8752;557.436977;25706.8752;529.014329;25706.8752;519.014021;25706.8752;526.535893
25718.2995;531.225089;25718.2995;528.799409;25718.2995;528.974376;25718.2995;547.363249;25718.2995;559.677534;25718.2995;561.773273;25718.2995;535.089742;25718.2995;527.605472;25718.2995;533.19153
26086.8932;520.337149;26086.8932;519.336695;26086.8932;521.744673;26086.8932;542.722944;26086.8932;556.807014;26086.8932;559.10281;26086.8932;529.113697;26086.8932;517.574153;26086.8932;526.447359
26086.8932;520.038849;26086.8932;519.036493;26086.8932;521.415949;26086.8932;542.453413;26086.8932;556.480467;26086.8932;558.733499;26086.8932;528.863712;26086.8932;517.294398;26086.8932;526.145354
26087.0689;521.624657;26087.0689;520.497349;26087.0689;522.666736;26087.0689;543.546412;26087.0689;557.437272;26087.0689;559.652912;26087.0689;530.04194;26087.0689;518.801801;26087.0689;527.368466
26098.4932;531.475972;26098.4932;529.418696;26098.4932;530.15437;26098.4932;549.339868;26098.4932;562.202835;26098.4932;564.342964;26098.4932;536.602762;26098.4932;528.035828;26098.4932;534.514046
26465.1892;521.362422;26465.1892;520.651654;26465.1892;523.50324;26465.1892;545.143184;26465.1892;559.672319;26465.1892;562.004082;26465.1892;531.153738;26465.1892;518.738335;26465.1892;528.328975
26465.1892;520.659595;26465.1892;519.984611;26465.1892;522.876166;26465.1892;544.611968;26465.1892;559.122684;26465.1892;561.429879;26465.1892;530.620028;26465.1892;518.077202;26465.1892;527.73464
26465.365;521.694067;26465.365;520.939604;26465.365;523.695639;26465.365;545.332879;26465.365;559.758671;26465.365;562.040609;26465.365;531.394316;26465.365;519.061103;26465.365;528.536891
26476.7892;531.43078;26476.7892;529.74244;26476.7892;531.044125;26476.7892;551.06347;26476.7892;564.47614;26476.7892;566.658814;26476.7892;537.895235;26476.7892;528.199484;26476.7892;535.575699
26841.7058;522.454658;26841.7058;522.010329;26841.7058;525.263824;26841.7058;547.535093;26841.7058;562.479554;26841.7058;564.834296;26841.7058;533.196971;26841.7058;519.965973;26841.7058;530.211008
26841.7058;521.518843;26841.7058;521.130918;26841.7058;524.462989;26841.7058;546.841252;26841.7058;561.788683;26841.7058;564.131843;26841.7058;532.489515;26841.7058;519.082594;26841.7058;529.443435
26841.8815;524.893474;26841.8815;524.38703;26841.8815;527.631403;26841.8815;549.869164;26841.8815;564.825967;26841.8815;567.256559;26841.8815;535.493868;26841.8815;522.329177;26841.8815;532.571777
26853.3058;533.96059;26853.3058;532.570397;26853.3058;534.414199;26853.3058;555.153119;26853.3058;569.132085;26853.3058;571.436673;26853.3058;541.497341;26853.3058;530.829805;26853.3058;539.066868
27216.6204;525.080028;27216.6204;524.857168;27216.6204;528.511332;27216.6204;551.336018;27216.6204;566.713616;27216.6204;569.158357;27216.6204;536.61184;27216.6204;522.653918;27216.6204;533.548935
27216.6204;523.943001;27216.6204;523.79291;27216.6204;527.551155;27216.6204;550.484635;27216.6204;565.874748;27216.6204;568.312975;27216.6204;535.732245;27216.6204;521.571728;27216.6204;532.616012
27216.7961;524.511919;27216.7961;524.326206;27216.7961;528.02567;27216.7961;550.911861;27216.7961;566.263816;27216.7961;568.693255;27216.7961;536.178888;27216.7961;522.113716;27216.7961;533.080309
27228.2204;533.105376;27228.2204;532.089153;27228.2204;534.466849;27228.2204;555.987339;27228.2204;570.443904;27228.2204;572.747759;27228.2204;541.922046;27228.2204;530.181794;27228.2204;539.264677
27589.7221;526.092862;27589.7221;526.115934;27589.7221;530.135464;27589.7221;553.562249;27589.7221;569.312454;27589.7221;571.763566;27589.7221;538.517521;27589.7221;523.798588;27589.7221;535.290806
27589.7221;524.997622;27589.7221;525.087907;27589.7221;529.208248;27589.7221;552.728706;27589.7221;568.488356;27589.7221;570.939123;27589.7221;537.662937;27589.7221;522.754892;27589.7221;534.389782
27589.8979;525.271955;27589.8979;525.347067;27589.8979;529.44294;27589.8979;552.943696;27589.8979;568.687885;27589.8979;571.135874;27589.8979;537.888114;27589.8979;523.018796;27589.8979;534.621483
27601.3221;533.263625;27601.3221;532.567204;27601.3221;535.428274;27601.3221;557.682344;27601.3221;572.599683;27601.3221;574.920483;27601.3221;543.234761;27601.3221;530.520896;27601.3221;540.372438
27960.9518;527.028115;27960.9518;527.292286;27960.9518;531.671095;27960.9518;555.69809;27960.9518;571.804576;27960.9518;574.258718;27960.9518;540.340805;27960.9518;524.865529;27960.9518;536.947911
27960.9518;525.858189;27960.9518;526.18898;27960.9518;530.671748;27960.9518;554.788854;27960.9518;570.906472;27960.9518;573.365118;27960.9518;539.419453;27960.9518;523.751155;27960.9518;535.978598
27961.1276;526.022025;27961.1276;526.347891;27961.1276;530.820828;27961.1276;554.925721;27961.1276;571.035033;27961.1276;573.49192;27961.1276;539.556906;27961.1276;523.907613;27961.1276;536.122401
27972.5518;533.156469;27972.5518;532.792058;27972.5518;536.15899;27972.5518;559.177989;27972.5518;574.556671;27972.5518;576.895927;27972.5518;544.356502;27972.5518;530.614354;27972.5518;541.26472
28330.1295;527.948138;28330.1295;528.441466;28330.1295;533.166245;28330.1295;557.779586;28330.1295;574.231306;28330.1295;576.689177;28330.1295;542.136115;28330.1295;525.923056;28330.1295;538.571029
28330.1296;528.937262;28330.1296;529.437663;28330.1296;534.260394;28330.1296;558.864687;28330.1296;575.376837;28330.1296;577.932042;28330.1296;543.160002;28330.1296;526.876329;28330.1296;539.653026
28330.3053;529.268896;28330.3053;529.749435;28330.3053;534.548411;28330.3053;559.123994;28330.3053;575.621662;28330.3053;578.182467;28330.3053;543.434525;28330.3053;527.19516;28330.3053;539.939596
28341.7296;535.477521;28341.7296;535.360437;28341.7296;539.192399;28341.7296;562.834948;28341.7296;578.694893;28341.7296;581.142929;28341.7296;547.614859;28341.7296;533.032023;28341.7296;544.412737
28697.2656;530.686383;28697.2656;531.345607;28697.2656;536.398718;28697.2656;561.477448;28697.2656;578.296914;28697.2656;580.842867;28697.2656;545.526431;28697.2656;528.715081;28697.2656;541.889752
28697.2656;529.541308;28697.2656;530.261758;28697.2656;535.403184;28697.2656;560.545107;28697.2656;577.361045;28697.2656;579.906344;28697.2656;544.579824;28697.2656;527.612574;28697.2656;540.91002
28697.4413;529.554976;28697.4413;530.280884;28697.4413;535.429442;28697.4413;560.570037;28697.4413;577.387752;28697.4413;579.934298;28697.4413;544.599404;28697.4413;527.625492;28697.4413;540.932468
28708.8656;535.104645;28708.8656;535.298323;28708.8656;539.590831;28708.8656;563.920439;28708.8656;580.181888;28708.8656;582.630911;28708.8656;548.367875;28708.8656;532.850524;28708.8656;544.95297
29062.6247;531.441195;29062.6247;532.327134;29062.6247;537.718833;29062.6247;563.35905;29062.6247;580.501629;29062.6247;583.045867;29062.6247;547.131707;29062.6247;529.605627;29062.6247;543.327493
29062.6247;530.269388;29062.6247;531.213558;29062.6247;536.686507;29062.6247;562.385929;29062.6247;579.522479;29062.6247;582.063383;29062.6247;546.150309;29062.6247;528.477068;29062.6247;542.311152
29062.8005;530.301503;29062.8005;531.248201;29062.8005;536.728231;29062.8005;562.425903;29062.8005;579.563778;29062.8005;582.109279;29062.8005;546.188623;29062.8005;528.508916;29062.8005;542.352244
29074.2247;535.214564;29074.2247;535.6938;29074.2247;540.417512;29074.2247;565.402858;29074.2247;582.052523;29074.2247;584.508252;29074.2247;549.525325;29074.2247;533.131483;29074.2247;545.914665
29426.2867;532.087914;29426.2867;533.202978;29426.2867;538.944753;29426.2867;565.1636;29426.2867;582.634177;29426.2867;585.17975;29426.2867;548.6655;29426.2867;530.398319;29426.2867;544.684628
29426.2867;530.837602;29426.2867;532.01773;29426.2867;537.843001;29426.2867;564.120142;29426.2867;581.580543;29426.2867;584.11758;29426.2867;547.606303;29426.2867;529.189634;29426.2867;543.590813
29426.4625;530.86088;29426.4625;532.042028;29426.4625;537.872941;29426.4625;564.147639;29426.4625;581.609723;29426.4625;584.152171;29426.4625;547.636187;29426.4625;529.21385;29426.4625;543.622153
29437.8867;534.935096;29437.8867;535.73215;29437.8867;540.938281;29437.8867;566.634099;29437.8867;583.694991;29437.8867;586.159694;29437.8867;550.417522;29437.8867;533.051341;29437.8867;546.584109
29788.2053;532.612004;29788.2053;533.964542;29788.2053;540.057799;29788.2053;566.835053;29788.2053;584.619856;29788.2053;587.160854;29788.2053;550.061682;29788.2053;531.06467;29788.2053;545.910579
29788.2053;531.507735;29788.2053;532.907844;29788.2053;539.066063;29788.2053;565.892144;29788.2053;583.661443;29788.2053;586.197364;29788.2053;549.122615;29788.2053;530.000955;29788.2053;544.935939
29788.3811;531.510861;29788.3811;532.913374;29788.3811;539.077624;29788.3811;565.900181;29788.3811;583.67057;29788.3811;586.210622;29788.3811;549.130399;29788.3811;530.004096;29788.3811;544.946459
29799.8053;538.165441;29799.8053;539.143388;29799.8053;544.745985;29799.8053;570.973747;29799.8053;588.477269;29799.8053;591.071989;29799.8053;554.397609;29799.8053;536.339013;29799.8053;550.492959
30148.365;535.558262;30148.365;537.038977;30148.365;543.419269;30148.365;570.582268;30148.365;588.686034;30148.365;591.322474;30148.365;553.530053;30148.365;534.039159;30148.365;549.340797
30148.3651;534.412305;30148.3651;535.94474;30148.3651;542.388067;30148.3651;569.596409;30148.3651;587.678232;30148.3651;590.30205;30148.3651;552.536375;30148.3651;532.927418;30148.3651;548.317692
30148.5408;534.382375;30148.5408;535.918836;30148.5408;542.370434;30148.5408;569.578886;30148.5408;587.662853;30148.5408;590.290523;30148.5408;552.518126;30148.5408;532.899205;30148.5408;548.300131
30159.9651;537.321221;30159.9651;538.588477;30159.9651;544.603378;30159.9651;571.413087;30159.9651;589.219982;30159.9651;591.793528;30159.9651;554.557982;30159.9651;535.674;30159.9651;550.464314
30506.8096;536.015587;30506.8096;537.723951;30506.8096;544.444862;30506.8096;572.138466;30506.8096;590.538714;30506.8096;593.171826;30506.8096;554.823436;30506.8096;534.633575;30506.8096;550.474244
30506.8096;534.947951;30506.8096;536.697616;30506.8096;543.470075;30506.8096;571.203367;30506.8096;589.575832;30506.8096;592.198295;30506.8096;553.894296;30506.8096;533.599848;30506.8096;549.513528
30506.9854;535.154827;30506.9854;536.889536;30506.9854;543.640622;30506.9854;571.33806;30506.9854;589.696089;30506.9854;592.321576;30506.9854;554.034693;30506.9854;533.78903;30506.9854;549.674062
30518.4096;537.263422;30518.4096;538.801516;30518.4096;545.226935;30518.4096;572.636612;30518.4096;590.787147;30518.4096;593.365516;30518.4096;555.489645;30518.4096;535.782867;30518.4096;551.211981
30863.5211;536.403597;30863.5211;538.327498;30863.5211;545.37286;30863.5211;573.568339;30863.5211;592.241556;30863.5211;594.872064;30863.5211;556.00952;30863.5211;535.15213;30863.5211;551.508266
30863.5211;535.239144;30863.5211;537.212408;30863.5211;544.319212;30863.5211;572.570977;30863.5211;591.226016;30863.5211;593.84405;30863.5211;555.014847;30863.5211;534.030267;30863.5211;550.472245
30863.6968;535.215351;30863.6968;537.191635;30863.6968;544.30365;30863.6968;572.55266;30863.6968;591.207746;30863.6968;593.828075;30863.6968;554.995039;30863.6968;534.006283;30863.6968;550.454706
30875.1211;537.21203;30875.1211;539.010256;30875.1211;545.834028;30875.1211;573.822334;30875.1211;592.297735;30875.1211;594.883048;30875.1211;556.400906;30875.1211;535.895701;30875.1211;551.94189
31218.4531;536.632312;31218.4531;538.774712;31218.4531;546.148948;31218.4531;574.844176;31218.4531;593.791339;31218.4531;596.420529;31218.4531;557.052942;31218.4531;535.520904;31218.4531;552.392085
31218.4531;535.505741;31218.4531;537.695112;31218.4531;545.126525;31218.4531;573.876565;31218.4531;592.803489;31218.4531;595.418665;31218.4531;556.088953;31218.4531;534.435841;31218.4531;551.386797
31218.6289;535.48356;31218.6289;537.674736;31218.6289;545.110009;31218.6289;573.856996;31218.6289;592.783759;31218.6289;595.40146;31218.6289;556.069763;31218.6289;534.41375;31218.6289;551.369312
31230.0531;540.536713;31230.0531;542.461176;31230.0531;549.600912;31230.0531;577.996972;31230.0531;596.838538;31230.0531;599.551887;31230.0531;560.263959;31230.0531;539.237405;31230.0531;555.780962
31571.6417;539.758885;31571.6417;541.9817;31571.6417;549.579391;31571.6417;578.545222;31571.6417;597.743307;31571.6417;600.473491;31571.6417;560.497403;31571.6417;538.625686;31571.6417;555.857714
31571.6417;538.626247;31571.6417;540.897987;31571.6417;548.549975;31571.6417;577.566956;31571.6417;596.73903;31571.6417;599.448906;31571.6417;559.513282;31571.6417;537.528558;31571.6417;554.838456
31571.8174;538.568047;31571.8174;540.843925;31571.8174;548.503286;31571.8174;577.523495;31571.8174;596.697093;31571.8174;599.409029;31571.8174;559.46905;31571.8174;537.472993;31571.8174;554.792769
31583.2417;539.918273;31583.2417;542.079656;31583.2417;549.554963;31583.2417;578.405793;31583.2417;597.465823;31583.2417;600.157424;31583.2417;560.439026;31583.2417;538.753851;31583.2417;555.816918
31923.1871;539.969949;31923.1871;542.391824;31923.1871;550.286449;31923.1871;579.696712;31923.1871;599.130431;31923.1871;601.856236;31923.1871;561.432319;31923.1871;538.957174;31923.1871;556.655299
31923.1871;538.730896;31923.1871;541.20702;31923.1871;549.161859;31923.1871;578.633443;31923.1871;598.04769;31923.1871;600.751855;31923.1871;560.364466;31923.1871;537.760526;31923.1871;555.544965
31923.3629;538.759197;31923.3629;541.231813;31923.3629;549.183486;31923.3629;578.646566;31923.3629;598.058139;31923.3629;600.76513;31923.3629;560.382354;31923.3629;537.786828;31923.3629;555.566155
31934.7871;539.782043;31934.7871;542.170365;31934.7871;549.984539;31934.7871;579.31955;31934.7871;598.644787;31934.7871;601.335306;31934.7871;561.119383;31934.7871;538.757187;31934.7871;556.34473
32272.9146;540.002292;32272.9146;542.624417;32272.9146;550.8151;32272.9146;580.662559;32272.9146;600.327489;32272.9146;603.047892;32272.9146;562.189843;32272.9146;539.113213;32272.9146;557.273966
32272.9146;538.827829;32272.9146;541.500751;32272.9146;549.752751;32272.9146;579.666707;32272.9146;599.312746;32272.9146;602.015294;32272.9146;561.195272;32272.9146;537.984643;32272.9146;556.231958
32273.0903;538.821376;32273.0903;541.493242;32273.0903;549.745344;32273.0903;579.656042;32273.0903;599.301159;32273.0903;602.005925;32273.0903;561.188143;32273.0903;537.978476;32273.0903;556.225355
32284.5146;539.67445;32284.5146;542.278424;32284.5146;550.420664;32284.5146;580.224802;32284.5146;599.802141;32284.5146;602.495719;32284.5146;561.808229;32284.5146;538.788108;32284.5146;556.881612
32620.8626;540.033296;32620.8626;542.842458;32620.8626;551.317646;32620.8626;581.586406;32620.8626;601.472127;32620.8626;604.191893;32620.8626;562.928686;32620.8626;539.270426;32620.8626;557.872497
32620.8626;538.878146;32620.8626;541.740243;32620.8626;550.276893;32620.8626;580.611795;32620.8626;600.478164;32620.8626;603.178348;32620.8626;561.951317;32620.8626;538.159579;32620.8626;556.848463
32621.0383;538.889187;32621.0383;541.749588;32621.0383;550.285264;32621.0383;580.616697;32621.0383;600.480581;32621.0383;603.182522;32621.0383;561.95863;32621.0383;538.16966;32621.0383;556.856999
32632.4626;543.088947;32632.4626;545.76524;32632.4626;554.138337;32632.4626;584.229232;32632.4626;604.098647;32632.4626;606.918954;32632.4626;565.549949;32632.4626;542.176795;32632.4626;560.641833
32967.062;543.311983;32967.062;546.157301;32967.062;554.783833;32967.062;585.20554;32967.062;605.277131;32967.062;608.101472;32967.062;566.318311;32967.062;542.473538;32967.062;561.335945
32967.062;542.102309;32967.062;545.005191;32967.062;553.697521;32967.062;584.192127;32967.062;604.244812;32967.062;607.045453;32967.062;565.294102;32967.062;541.308411;32967.062;560.265486
32967.2378;542.130814;32967.2378;545.031367;32967.2378;553.720641;32967.2378;584.209171;32967.2378;604.257403;32967.2378;607.058655;32967.2378;565.311888;32967.2378;541.333698;32967.2378;560.286673
32978.662;542.596373;32978.662;545.462112;32978.662;554.094934;32978.662;584.522844;32978.662;604.53792;32978.662;607.335154;32978.662;565.655339;32978.662;541.777381;32978.662;560.650612
33311.4435;543.358833;33311.4435;546.376921;33311.4435;555.259073;33311.4435;586.05388;33311.4435;606.312265;33311.4435;609.130461;33311.4435;566.986402;33311.4435;542.624609;33311.4435;561.886317
33311.4435;542.200298;33311.4435;545.272178;33311.4435;554.218577;33311.4435;585.087718;33311.4435;605.328063;33311.4435;608.125538;33311.4435;566.015236;33311.4435;541.51241;33311.4435;560.866312
33311.6192;542.201641;33311.6192;545.272552;33311.6192;554.217851;33311.6192;585.08367;33311.6192;605.321583;33311.6192;608.119528;33311.6192;566.012276;33311.6192;541.512666;33311.6192;560.864822
33323.0435;542.761874;33323.0435;545.794319;33323.0435;554.676194;33323.0435;585.466565;33323.0435;605.665961;33323.0435;608.459739;33323.0435;566.41557;33323.0435;542.037804;33323.0435;561.303162
33654.0866;543.249785;33654.0866;546.441541;33654.0866;555.580827;33654.0866;586.747198;33654.0866;607.194049;33654.0866;610.006494;33654.0866;567.508841;33654.0866;542.625923;33654.0866;562.287375
33654.0866;542.064105;33654.0866;545.313734;33654.0866;554.5218;33654.0866;585.766829;33654.0866;606.198252;33654.0866;608.989298;33654.0866;566.522312;33654.0866;541.489811;33654.0866;561.248268
33654.2624;542.005566;33654.2624;545.258469;33654.2624;554.471458;33654.2624;585.719988;33654.2624;606.152837;33654.2624;608.944214;33654.2624;566.4749;33654.2624;541.433981;33654.2624;561.198812
33665.6866;542.27043;33665.6866;545.507067;33665.6866;554.693562;33665.6866;585.907313;33665.6866;606.325243;33665.6866;609.116573;33665.6866;566.676708;33665.6866;541.68678;33665.6866;561.41405
33995.1098;543.118887;33995.1098;546.478106;33995.1098;555.8671;33995.1098;587.388868;33995.1098;608.011668;33995.1098;610.820844;33995.1098;567.994495;33995.1098;542.605473;33995.1098;562.650918
33995.1098;541.939647;33995.1098;545.358157;33995.1098;554.819102;33995.1098;586.425768;33995.1098;607.036262;33995.1098;609.823921;33995.1098;567.022023;33995.1098;541.47712;33995.1098;561.624804
33995.2855;545.597051;33995.2855;548.872197;33995.2855;558.229383;33995.2855;589.64854;33995.2855;610.303944;33995.2855;613.217068;33995.2855;570.182838;33995.2855;544.954781;33995.2855;564.966072
34006.7098;545.552563;34006.7098;548.820135;34006.7098;558.153095;34006.7098;589.521229;34006.7098;610.140992;34006.7098;613.045334;34006.7098;570.071513;34006.7098;544.897222;34006.7098;564.873314
34334.4384;546.35492;34334.4384;549.731279;34334.4384;559.230519;34334.4384;590.841035;34334.4384;611.614668;34334.4384;614.525008;34334.4384;571.230584;34334.4384;545.739762;34334.4384;565.983518
34334.4384;545.16648;34334.4384;548.602282;34334.4384;558.173222;34334.4384;589.869173;34334.4384;610.628399;34334.4384;613.516217;34334.4384;570.247705;34334.4384;544.600425;34334.4384;564.948581
34334.6141;545.133925;34334.6141;548.5713;34334.6141;558.144998;34334.6141;589.843736;34334.6141;610.603094;34334.6141;613.491102;34334.6141;570.222354;34334.6141;544.569676;34334.6141;564.921523
34346.0384;545.242124;34346.0384;548.675279;34346.0384;558.241336;34346.0384;589.921682;34346.0384;610.678698;34346.0384;613.56887;34346.0384;570.307055;34346.0384;544.673493;34346.0384;565.013855
34671.9849;546.167488;34671.9849;549.701353;34671.9849;559.434676;34671.9849;591.379021;34671.9849;612.31207;34671.9849;615.216713;34671.9849;571.619952;34671.9849;545.654949;34671.9849;566.260011
34671.985;545.001731;34671.985;548.593305;34671.985;558.39493;34671.985;590.416862;34671.985;611.331847;34671.985;614.213792;34671.985;570.647056;34671.985;544.534769;34671.985;565.239084
34672.1607;544.965689;34672.1607;548.55831;34672.1607;558.362744;34672.1607;590.388428;34672.1607;611.304756;34672.1607;614.187497;34672.1607;570.620678;34672.1607;544.501845;34672.1607;565.209686
34683.585;545.267833;34683.585;548.84374;34683.585;558.619464;34683.585;590.601246;34683.585;611.499989;34683.585;614.382771;34683.585;570.836876;34683.585;544.781272;34683.585;565.45084
35007.8241;545.874878;35007.8241;549.558083;35007.8241;559.50998;35007.8241;591.760904;35007.8241;612.837787;35007.8241;615.734474;35007.8241;571.867244;35007.8241;545.459153;35007.8241;566.402337
35007.8241;544.6767;35007.8241;548.423963;35007.8241;558.45311;35007.8241;590.795841;35007.8241;611.863483;35007.8241;614.737397;35007.8241;570.88883;35007.8241;544.314169;35007.8241;565.367215
35007.9999;544.651952;35007.9999;548.399876;35007.9999;558.43102;35007.9999;590.776687;35007.9999;611.845102;35007.9999;614.719582;35007.9999;570.871201;35007.9999;544.291716;35007.9999;565.347287
35019.4241;544.654193;35019.4241;548.40636;35019.4241;558.442361;35019.4241;590.781665;35019.4241;611.854554;35019.4241;614.731551;35019.4241;570.875949;35019.4241;544.294096;35019.4241;565.355789
35341.961;545.604288;35341.961;549.433214;35341.961;559.599069;35341.961;592.149374;35341.961;613.364276;35341.961;616.253702;35341.961;572.124156;35341.961;545.283445;35341.961;566.555744
35341.961;547.873677;35341.961;551.619428;35341.961;561.753215;35341.961;594.205935;35341.961;615.453204;35341.961;618.443585;35341.961;574.127526;35341.961;547.437763;35341.961;568.671643
35342.1367;547.943046;35342.1367;551.682092;35342.1367;561.80543;35342.1367;594.245038;35342.1367;615.487067;35342.1367;618.477934;35342.1367;574.17033;35342.1367;547.500845;35342.1367;568.720695
35353.561;547.88929;35353.561;551.636626;35353.561;561.771327;35353.561;594.212559;35353.561;615.462489;35353.561;618.455846;35353.561;574.135447;35353.561;547.450986;35353.561;568.685837
35674.1796;548.778808;35674.1796;552.586276;35674.1796;562.818552;35674.1796;595.422411;35674.1796;616.782509;35674.1796;619.783988;35674.1796;575.246178;35674.1796;548.365272;35674.1796;569.763331
35674.1796;547.574862;35674.1796;551.44814;35674.1796;561.760647;35674.1796;594.459885;35674.1796;615.808739;35674.1796;618.785733;35674.1796;574.265298;35674.1796;547.213441;35674.1796;568.727455
35674.3553;547.52272;35674.3553;551.400084;35674.3553;561.717781;35674.3553;594.422286;35674.3553;615.772641;35674.3553;618.74873;35674.3553;574.224863;35674.3553;547.163718;35674.3553;568.68481
35685.7796;547.48991;35685.7796;551.373279;35685.7796;561.699685;35685.7796;594.402858;35685.7796;615.761294;35685.7796;618.740872;35685.7796;574.204637;35685.7796;547.133385;35685.7796;568.666045
36004.5621;548.365076;36004.5621;552.317418;36004.5621;562.75933;36004.5621;595.648568;36004.5621;617.131176;36004.5621;620.12066;36004.5621;575.340571;36004.5621;548.041375;36004.5621;569.761482
36004.5622;547.150707;36004.5622;551.167788;36004.5622;561.689393;36004.5622;594.673938;36004.5622;616.150352;36004.5622;619.118219;36004.5622;574.355457;36004.5622;546.883399;36004.5622;568.716696
36004.7379;547.092451;36004.7379;551.113305;36004.7379;561.640445;36004.7379;594.631427;36004.7379;616.110633;36004.7379;619.078214;36004.7379;574.311971;36004.7379;546.828992;36004.7379;568.669606
36016.1622;547.280093;36016.1622;551.290675;36016.1622;561.80027;36016.1622;594.760217;36016.1622;616.230828;36016.1622;619.200063;36016.1622;574.441512;36016.1622;547.000232;36016.1622;568.818234
36333.0136;547.881181;36333.0136;551.966774;36333.0136;562.599013;36333.0136;595.752574;36333.0136;617.351797;36333.0136;620.330864;36333.0136;575.338472;36333.0136;547.648995;36333.0136;569.660021
36333.0136;546.669918;36333.0136;550.822915;36333.0136;561.539925;36333.0136;594.794975;36333.0136;616.389193;36333.0136;619.345979;36333.0136;574.366255;36333.0136;546.49584;36333.0136;568.626922
36333.1894;546.629938;36333.1894;550.785068;36333.1894;561.50564;36333.1894;594.765066;36333.1894;616.361421;36333.1894;619.318262;36333.1894;574.336725;36333.1894;546.458913;36333.1894;568.594587
36344.6136;546.548333;36344.6136;550.713926;36344.6136;561.448462;36344.6136;594.712404;36344.6136;616.318955;36344.6136;619.277989;36344.6136;574.278222;36344.6136;546.381245;36344.6136;568.53597
36659.5956;547.434796;36659.5956;551.648158;36659.5956;562.465326;36659.5956;595.873214;36659.5956;617.578703;36659.5956;620.547537;36659.5956;575.354838;36659.5956;547.289677;36659.5956;569.582188
36659.5956;546.201967;36659.5956;550.484347;36659.5956;561.387807;36659.5956;594.897127;36659.5956;616.601166;36659.5956;619.547588;36659.5956;574.365223;36659.5956;546.117199;36659.5956;568.530433
36659.7714;546.168959;36659.7714;550.453493;36659.7714;561.36215;36659.7714;594.879802;36659.7714;616.585807;36659.7714;619.533256;36659.7714;574.348491;36659.7714;546.088211;36659.7714;568.508995
36671.1956;549.734975;36671.1956;553.883593;36671.1956;564.712482;36671.1956;598.085564;36671.1956;619.881073;36671.1956;622.965419;36671.1956;577.494883;36671.1956;549.498355;36671.1956;571.813341
36984.879;550.505;36984.879;554.680627;36984.879;565.548316;36984.879;598.996215;36984.879;620.842068;36984.879;623.926636;36984.879;578.350639;36984.879;550.271394;36984.879;572.660257
36984.8791;549.32499;36984.8791;553.56706;36984.8791;564.516356;36984.8791;598.060357;36984.8791;619.894389;36984.8791;622.954577;36984.8791;577.395081;36984.8791;549.143194;36984.8791;571.650169
36985.0548;549.261025;36985.0548;553.507565;36985.0548;564.463548;36985.0548;598.015571;36985.0548;619.853126;36985.0548;622.913013;36985.0548;577.348794;36985.0548;549.083711;36985.0548;571.599646
36996.4791;549.195839;36996.4791;553.451297;36996.4791;564.419779;36996.4791;597.976541;36996.4791;619.824028;36996.4791;622.886374;36996.4791;577.304629;36996.4791;549.021979;36996.4791;571.55527
37309.9259;549.989587;37309.9259;554.288752;37309.9259;565.332075;37309.9259;599.017401;37309.9259;620.953971;37309.9259;624.025041;37309.9259;578.268703;37309.9259;549.834953;37309.9259;572.492837
37309.9259;548.794716;37309.9259;553.160759;37309.9259;564.287576;37309.9259;598.070708;37309.9259;620.000097;37309.9259;623.048385;37309.9259;577.306405;37309.9259;548.695921;37309.9259;571.472665
37310.1017;549.05165;37310.1017;553.398011;37310.1017;564.494036;37310.1017;598.243047;37310.1017;620.153975;37310.1017;623.20086;37310.1017;577.483463;37310.1017;548.932469;37310.1017;571.668641
37321.5259;548.603603;37321.5259;552.985543;37321.5259;564.132284;37321.5259;597.93038;37321.5259;619.875386;37321.5259;622.923524;37321.5259;577.159589;37321.5259;548.514956;37321.5259;571.319392
37635.0165;549.371186;37635.0165;553.792923;37635.0165;565.009124;37635.0165;598.927849;37635.0165;620.95575;37635.0165;624.012706;37635.0165;578.08627;37635.0165;549.300411;37635.0165;572.221064
37635.0165;548.156682;37635.0165;552.647963;37635.0165;563.951383;37635.0165;597.97163;37635.0165;619.995648;37635.0165;623.030015;37635.0165;577.113821;37635.0165;548.144594;37635.0165;571.188123
37635.1923;548.119089;37635.1923;552.61212;37635.1923;563.919333;37635.1923;597.945187;37635.1923;619.971865;37635.1923;623.006845;37635.1923;577.088991;37635.1923;548.110895;37635.1923;571.159399
37646.6165;548.022268;37646.6165;552.527425;37646.6165;563.850836;37646.6165;597.886102;37646.6165;619.924317;37646.6165;622.960568;37646.6165;577.021139;37646.6165;548.018847;37646.6165;571.089903
37958.7879;548.793646;37958.7879;553.332067;37958.7879;564.715017;37958.7879;598.858241;37958.7879;620.971398;37958.7879;624.016111;37958.7879;577.92954;37958.7879;548.804606;37958.7879;571.976888
37958.788;547.591107;37958.788;552.198178;37958.788;563.667765;37958.788;597.911901;37958.788;620.022526;37958.788;623.045478;37958.788;576.969404;37958.788;547.661695;37958.788;570.955423
37958.9637;547.540277;37958.9637;552.151439;37958.9637;563.627802;37958.9637;597.880824;37958.9637;619.994219;37958.9637;623.017149;37958.9637;576.936556;37958.9637;547.615043;37958.9637;570.918231
37970.388;551.118947;37970.388;555.592884;37970.388;566.989643;37970.388;601.1054;37970.388;623.312984;37970.388;626.47384;37970.388;580.100237;37970.388;551.038692;37970.388;574.237271
38278.116;551.858256;38278.116;556.342151;38278.116;567.752305;38278.116;601.908601;38278.116;624.143471;38278.116;627.30359;38278.116;580.865391;38278.116;551.770613;38278.116;575.004126
38278.116;550.676069;38278.116;555.227214;38278.116;566.720388;38278.116;600.972058;38278.116;623.196281;38278.116;626.332571;38278.116;579.910593;38278.116;550.64159;38278.116;573.994288
38278.2917;550.610053;38278.2917;555.165655;38278.2917;566.66534;38278.2917;600.924333;38278.2917;623.152649;38278.2917;626.288659;38278.2917;579.861735;38278.2917;550.580157;38278.2917;573.941377
38289.716;550.532021;38289.716;555.098288;38289.716;566.612726;38289.716;600.881386;38289.716;623.120564;38289.716;626.257962;38289.716;579.810686;38289.716;550.506451;38289.716;573.888516
38584.6228;551.345036;38584.6228;555.920927;38584.6228;567.459182;38584.6228;601.790462;38584.6228;624.074808;38584.6228;627.219777;38584.6228;580.677328;38584.6228;551.318177;38584.6228;574.748731
38584.6228;550.0795;38584.6228;554.727062;38584.6228;566.352874;38584.6228;600.785999;38584.6228;623.066776;38584.6228;626.18692;38584.6228;579.656487;38584.6228;550.112045;38584.6228;573.667182
38584.7986;550.098824;38584.7986;554.743906;38584.7986;566.366966;38584.7986;600.797592;38584.7986;623.077914;38584.7986;626.198719;38584.7986;579.67106;38584.7986;550.131175;38584.7986;573.682146
38596.2228;549.965233;38596.2228;554.625998;38596.2228;566.270862;38596.2228;600.719598;38596.2228;623.013393;38596.2228;626.134796;38596.2228;579.581164;38596.2228;550.005187;38596.2228;573.586982
38866.5828;550.739358;38866.5828;555.399191;38866.5828;567.051018;38866.5828;601.539622;38866.5828;623.863271;38866.5828;626.990937;38866.5828;580.369434;38866.5828;550.771184;38866.5828;574.375885
38866.5829;549.558645;38866.5829;554.286091;38866.5829;566.023395;38866.5829;600.610542;38866.5829;622.929608;38866.5829;626.035735;38866.5829;579.426286;38866.5829;549.648279;38866.5829;573.373358
38866.6792;549.504986;38866.6792;554.236898;38866.6792;565.98119;38866.6792;600.577167;38866.6792;622.899062;38866.6792;626.00489;38866.6792;579.390574;38866.6792;549.598729;38866.6792;573.333461
38872.939;549.474784;38872.939;554.210799;38872.939;565.960211;38872.939;600.557922;38872.939;622.885167;38872.939;625.99166;38872.939;579.367981;38872.939;549.569518;38872.939;573.311368
39078.3634;550.041457;39078.3634;554.716065;39078.3634;566.374337;39078.3634;600.878168;39078.3634;623.148527;39078.3634;626.253238;39078.3634;579.728895;39078.3634;550.094394;39078.3634;573.708306
39942.3634;553.801534;39942.3634;558.840806;39942.3634;571.074323;39942.3634;606.490394;39942.3634;629.312998;39942.3634;632.442492;39942.3634;584.908014;39942.3634;554.086694;39942.3634;578.600835
48582.3634;571.654142;48582.3634;576.851813;48582.3634;589.336736;48582.3634;625.938232;48582.3634;649.450249;48582.3634;652.542447;48582.3634;603.778846;48582.3634;572.033237;48582.3634;597.142685
91782.3634;578.118579;91782.3634;583.394966;91782.3634;596.004741;91782.3634;633.099028;91782.3634;656.869095;91782.3634;659.944763;91782.3634;610.709659;91782.3634;578.548833;91782.3634;603.927129
91783.3634;576.879283;91783.3634;582.226758;91783.3634;594.926309;91783.3634;632.124947;91783.3634;655.881051;91783.3634;658.932085;91783.3634;609.723859;91783.3634;577.371717;91783.3634;602.876339
91784.3634;555.274027;91784.3634;562.94788;91784.3634;578.668942;91784.3634;618.864726;91784.3634;643.633134;91784.3634;646.371925;91784.3634;594.488991;91784.3634;556.859458;91784.3634;586.602737
91785.3634;553.434799;91785.3634;561.317462;91785.3634;577.277146;91785.3634;617.640598;91785.3634;642.496007;91785.3634;645.193535;91785.3634;593.071334;91785.3634;555.070743;91785.3634;585.157156
91786.3634;521.914275;91786.3634;532.396832;91786.3634;552.711664;91786.3634;597.869356;91786.3634;624.747239;91786.3634;627.646015;91786.3634;572.783126;91786.3634;526.274357;91786.3634;562.297995
91787.3634;521.611872;91787.3634;532.118547;91787.3634;552.47208;91787.3634;597.66762;91787.3634;624.565699;91787.3634;627.467047;91787.3634;572.57645;91787.3634;525.995575;91787.3634;562.070395
92651.3634;521.57733;92651.3634;532.089234;92651.3634;552.44673;92651.3634;597.643626;92651.3634;624.547649;92651.3634;627.447073;92651.3634;572.553428;92651.3634;525.965786;92651.3634;562.045206
92654.6968;416.363937;92654.6968;426.239371;92654.6968;445.002402;92654.6968;479.508102;92654.6968;484.006648;92654.6968;483.477978;92654.6968;465.563317;92654.6968;422.717687;92654.6968;453.577476
92658.0301;251.541087;92658.0301;302.604669;92658.0301;376.176044;92658.0301;434.664888;92658.0301;447.117111;92658.0301;438.578922;92658.0301;408.52855;92658.0301;285.17219;92658.0301;384.451528
92661.3634;249.121051;92661.3634;299.60709;92661.3634;368.77906;92661.3634;428.506909;92661.3634;443.714349;92661.3634;432.945503;92661.3634;402.961744;92661.3634;284.224785;92661.3634;377.34529
92662.3634;249.059248;92662.3634;299.151392;92662.3634;367.790875;92662.3634;428.320113;92662.3634;443.635597;92662.3634;432.847241;92662.3634;402.466453;92662.3634;284.042082;92662.3634;376.614221
92663.3634;207.792222;92663.3634;243.600828;92663.3634;284.602273;92663.3634;303.956784;92663.3634;301.389097;92663.3634;287.436624;92663.3634;300.421592;92663.3634;235.641993;92663.3634;285.270262
